p cnf 421 306
c p distribution  0.875 0.125
c p distribution  0.875 0.125
c p distribution  0.875 0.125
c p distribution  0.875 0.125
c p distribution  0.875 0.125
c p distribution  0.875 0.125
c p distribution  0.875 0.125
c p distribution  0.875 0.125
c p distribution  0.875 0.125
c p distribution  0.875 0.125
c p distribution  0.875 0.125
c p distribution  0.875 0.125
c p distribution  0.875 0.125
c p distribution  0.875 0.125
c p distribution  0.875 0.125
c p distribution  0.875 0.125
c p distribution  0.875 0.125
c p distribution  0.875 0.125
c p distribution  0.875 0.125
c p distribution  0.875 0.125
c p distribution  0.875 0.125
c p distribution  0.875 0.125
c p distribution  0.875 0.125
c p distribution  0.875 0.125
c p distribution  0.875 0.125
c p distribution  0.875 0.125
c p distribution  0.875 0.125
c p distribution  0.875 0.125
c p distribution  0.875 0.125
c p distribution  0.875 0.125
c p distribution  0.875 0.125
c p distribution  0.875 0.125
c p distribution  0.875 0.125
c p distribution  0.875 0.125
c p distribution  0.875 0.125
c p distribution  0.875 0.125
c p distribution  0.875 0.125
c p distribution  0.875 0.125
c p distribution  0.875 0.125
c p distribution  0.875 0.125
c p distribution  0.875 0.125
c p distribution  0.875 0.125
c p distribution  0.875 0.125
c p distribution  0.875 0.125
c p distribution  0.875 0.125
c p distribution  0.875 0.125
c p distribution  0.875 0.125
c p distribution  0.875 0.125
c p distribution  0.875 0.125
c p distribution  0.875 0.125
c p distribution  0.875 0.125
c p distribution  0.875 0.125
c p distribution  0.875 0.125
c p distribution  0.875 0.125
c p distribution  0.875 0.125
c p distribution  0.875 0.125
c p distribution  0.875 0.125
c p distribution  0.875 0.125
c p distribution  0.875 0.125
c p distribution  0.875 0.125
c p distribution  0.875 0.125
c p distribution  0.875 0.125
c p distribution  0.875 0.125
c p distribution  0.875 0.125
c p distribution  0.875 0.125
c p distribution  0.875 0.125
c p distribution  0.875 0.125
c p distribution  0.875 0.125
c p distribution  0.875 0.125
c p distribution  0.875 0.125
c p distribution  0.875 0.125
c p distribution  0.875 0.125
c p distribution  0.875 0.125
c p distribution  0.875 0.125
c p distribution  0.875 0.125
c p distribution  0.875 0.125
c p distribution  0.875 0.125
c p distribution  0.875 0.125
c p distribution  0.875 0.125
c p distribution  0.875 0.125
c p distribution  0.875 0.125
c p distribution  0.875 0.125
c p distribution  0.875 0.125
c p distribution  0.875 0.125
c p distribution  0.875 0.125
c p distribution  0.875 0.125
c p distribution  0.875 0.125
c p distribution  0.875 0.125
c p distribution  0.875 0.125
c p distribution  0.875 0.125
c p distribution  0.875 0.125
c p distribution  0.875 0.125
c p distribution  0.875 0.125
c p distribution  0.875 0.125
c p distribution  0.875 0.125
c p distribution  0.875 0.125
c p distribution  0.875 0.125
c p distribution  0.875 0.125
c p distribution  0.875 0.125
c p distribution  0.875 0.125
c p distribution  0.875 0.125
c p distribution  0.875 0.125
c p distribution  0.875 0.125
c p distribution  0.875 0.125
c p distribution  0.875 0.125
c p distribution  0.875 0.125
c p distribution  0.875 0.125
c p distribution  0.875 0.125
c p distribution  0.875 0.125
c p distribution  0.875 0.125
c p distribution  0.875 0.125
c p distribution  0.875 0.125
c p distribution  0.875 0.125
c p distribution  0.875 0.125
c p distribution  0.875 0.125
c p distribution  0.875 0.125
c p distribution  0.875 0.125
c p distribution  0.875 0.125
c p distribution  0.875 0.125
c p distribution  0.875 0.125
c p distribution  0.875 0.125
c p distribution  0.875 0.125
c p distribution  0.875 0.125
c p distribution  0.875 0.125
c p distribution  0.875 0.125
c p distribution  0.875 0.125
c p distribution  0.875 0.125
c p distribution  0.875 0.125
c p distribution  0.875 0.125
c p distribution  0.875 0.125
c p distribution  0.875 0.125
c p distribution  0.875 0.125
c p distribution  0.875 0.125
c p distribution  0.875 0.125
c p distribution  0.875 0.125
c p distribution  0.875 0.125
c p distribution  0.875 0.125
c p distribution  0.875 0.125
c p distribution  0.875 0.125
c p distribution  0.875 0.125
c p distribution  0.875 0.125
c p distribution  0.875 0.125
c p distribution  0.875 0.125
c p distribution  0.875 0.125
c p distribution  0.875 0.125
c p distribution  0.875 0.125
c p distribution  0.875 0.125
c p distribution  0.875 0.125
c p distribution  0.875 0.125
c p distribution  0.875 0.125
c p distribution  0.875 0.125
c p distribution  0.875 0.125
348 0
-380 0
332 -385 -1 0
385 -332 -1 0
361 -307 -3 0
307 -361 -3 0
374 -381 -5 0
381 -374 -5 0
326 -409 -7 0
409 -326 -7 0
411 -371 -9 0
371 -411 -9 0
340 -381 -11 0
381 -340 -11 0
383 -394 -13 0
394 -383 -13 0
338 -364 -15 0
364 -338 -15 0
338 -364 -17 0
364 -338 -17 0
315 -347 -19 0
347 -315 -19 0
350 -367 -21 0
367 -350 -21 0
346 -380 -23 0
380 -346 -23 0
373 -414 -25 0
414 -373 -25 0
393 -331 -27 0
331 -393 -27 0
379 -413 -29 0
413 -379 -29 0
396 -395 -31 0
395 -396 -31 0
308 -416 -33 0
416 -308 -33 0
392 -319 -35 0
319 -392 -35 0
393 -370 -37 0
370 -393 -37 0
340 -345 -39 0
345 -340 -39 0
340 -345 -41 0
345 -340 -41 0
340 -419 -43 0
419 -340 -43 0
365 -325 -45 0
325 -365 -45 0
357 -397 -47 0
397 -357 -47 0
312 -374 -49 0
374 -312 -49 0
416 -386 -51 0
386 -416 -51 0
334 -356 -53 0
356 -334 -53 0
388 -395 -55 0
395 -388 -55 0
312 -419 -57 0
419 -312 -57 0
415 -369 -59 0
369 -415 -59 0
387 -412 -61 0
412 -387 -61 0
379 -391 -63 0
391 -379 -63 0
415 -320 -65 0
320 -415 -65 0
379 -305 -67 0
305 -379 -67 0
343 -354 -69 0
354 -343 -69 0
399 -322 -71 0
322 -399 -71 0
404 -357 -73 0
357 -404 -73 0
340 -345 -75 0
345 -340 -75 0
362 -323 -77 0
323 -362 -77 0
421 -420 -79 0
420 -421 -79 0
375 -399 -81 0
399 -375 -81 0
405 -311 -83 0
311 -405 -83 0
312 -419 -85 0
419 -312 -85 0
323 -333 -87 0
333 -323 -87 0
354 -306 -89 0
306 -354 -89 0
355 -363 -91 0
363 -355 -91 0
391 -353 -93 0
353 -391 -93 0
356 -393 -95 0
393 -356 -95 0
420 -357 -97 0
357 -420 -97 0
321 -414 -99 0
414 -321 -99 0
401 -394 -101 0
394 -401 -101 0
319 -420 -103 0
420 -319 -103 0
306 -358 -105 0
358 -306 -105 0
400 -334 -107 0
334 -400 -107 0
396 -313 -109 0
313 -396 -109 0
412 -319 -111 0
319 -412 -111 0
339 -327 -113 0
327 -339 -113 0
316 -318 -115 0
318 -316 -115 0
378 -324 -117 0
324 -378 -117 0
371 -390 -119 0
390 -371 -119 0
355 -311 -121 0
311 -355 -121 0
418 -341 -123 0
341 -418 -123 0
369 -410 -125 0
410 -369 -125 0
402 -375 -127 0
375 -402 -127 0
336 -338 -129 0
338 -336 -129 0
386 -340 -131 0
340 -386 -131 0
405 -384 -133 0
384 -405 -133 0
411 -323 -135 0
323 -411 -135 0
340 -345 -137 0
345 -340 -137 0
407 -360 -139 0
360 -407 -139 0
328 -322 -141 0
322 -328 -141 0
398 -339 -143 0
339 -398 -143 0
411 -406 -145 0
406 -411 -145 0
397 -319 -147 0
319 -397 -147 0
365 -352 -149 0
352 -365 -149 0
391 -353 -151 0
353 -391 -151 0
306 -358 -153 0
358 -306 -153 0
315 -344 -155 0
344 -315 -155 0
382 -412 -157 0
412 -382 -157 0
306 -397 -159 0
397 -306 -159 0
417 -367 -161 0
367 -417 -161 0
361 -337 -163 0
337 -361 -163 0
377 -360 -165 0
360 -377 -165 0
362 -310 -167 0
310 -362 -167 0
371 -410 -169 0
410 -371 -169 0
346 -353 -171 0
353 -346 -171 0
391 -353 -173 0
353 -391 -173 0
355 -347 -175 0
347 -355 -175 0
355 -311 -177 0
311 -355 -177 0
418 -318 -179 0
318 -418 -179 0
408 -396 -181 0
396 -408 -181 0
337 -336 -183 0
336 -337 -183 0
323 -415 -185 0
415 -323 -185 0
376 -336 -187 0
336 -376 -187 0
315 -330 -189 0
330 -315 -189 0
348 -339 -191 0
339 -348 -191 0
351 -359 -193 0
359 -351 -193 0
328 -352 -195 0
352 -328 -195 0
326 -376 -197 0
376 -326 -197 0
403 -329 -199 0
329 -403 -199 0
306 -395 -201 0
395 -306 -201 0
411 -371 -203 0
371 -411 -203 0
389 -378 -205 0
378 -389 -205 0
372 -330 -207 0
330 -372 -207 0
323 -333 -209 0
333 -323 -209 0
321 -327 -211 0
327 -321 -211 0
363 -342 -213 0
342 -363 -213 0
340 -327 -215 0
327 -340 -215 0
348 -372 -217 0
372 -348 -217 0
344 -391 -219 0
391 -344 -219 0
407 -383 -221 0
383 -407 -221 0
308 -314 -223 0
314 -308 -223 0
421 -412 -225 0
412 -421 -225 0
362 -335 -227 0
335 -362 -227 0
418 -409 -229 0
409 -418 -229 0
369 -411 -231 0
411 -369 -231 0
333 -356 -233 0
356 -333 -233 0
309 -404 -235 0
404 -309 -235 0
317 -331 -237 0
331 -317 -237 0
332 -368 -239 0
368 -332 -239 0
354 -388 -241 0
388 -354 -241 0
312 -335 -243 0
335 -312 -243 0
306 -395 -245 0
395 -306 -245 0
418 -364 -247 0
364 -418 -247 0
316 -353 -249 0
353 -316 -249 0
384 -307 -251 0
307 -384 -251 0
421 -382 -253 0
382 -421 -253 0
414 -339 -255 0
339 -414 -255 0
370 -403 -257 0
403 -370 -257 0
306 -358 -259 0
358 -306 -259 0
376 -377 -261 0
377 -376 -261 0
349 -356 -263 0
356 -349 -263 0
408 -353 -265 0
353 -408 -265 0
388 -305 -267 0
305 -388 -267 0
330 -321 -269 0
321 -330 -269 0
349 -389 -271 0
389 -349 -271 0
359 -398 -273 0
398 -359 -273 0
366 -412 -275 0
412 -366 -275 0
392 -319 -277 0
319 -392 -277 0
315 -317 -279 0
317 -315 -279 0
374 -356 -281 0
356 -374 -281 0
315 -402 -283 0
402 -315 -283 0
340 -330 -285 0
330 -340 -285 0
359 -386 -287 0
386 -359 -287 0
329 -385 -289 0
385 -329 -289 0
306 -379 -291 0
379 -306 -291 0
342 -368 -293 0
368 -342 -293 0
413 -325 -295 0
325 -413 -295 0
306 -309 -297 0
309 -306 -297 0
340 -317 -299 0
317 -340 -299 0
310 -367 -301 0
367 -310 -301 0
362 -323 -303 0
323 -362 -303 0

